experiment/data/lkh-res/Vrp-Set-E-n101/Vrp-Set-E-n101-lkh/0.lkh1.tour
NAME : 0.109063.tour
COMMENT : Length = 109063
COMMENT : Found by LKH-3 [Keld Helsgaun] Tue Apr  9 01:52:09 2024
TYPE : TOUR
DIMENSION : 114
TOUR_SECTION
1
28
51
77
29
103
60
99
86
94
100
114
54
59
14
96
95
111
22
73
57
76
42
23
75
74
41
106
34
79
35
36
72
66
67
21
108
83
49
48
20
8
53
109
7
97
6
85
18
46
84
61
90
104
32
11
64
91
33
31
71
70
112
89
63
12
65
50
37
47
9
19
110
62
17
87
39
44
16
58
3
107
27
55
25
30
69
81
13
113
88
43
15
45
92
101
38
93
98
105
2
52
10
82
80
4
78
102
5
40
24
68
26
56
-1
EOF
